; benchmark generated from python API
(set-info :status unknown)
(declare-fun cell_1_1 () Int)
(declare-fun cell_1_2 () Int)
(declare-fun cell_1_3 () Int)
(declare-fun cell_1_4 () Int)
(declare-fun cell_2_1 () Int)
(declare-fun cell_3_1 () Int)
(declare-fun cell_4_1 () Int)
(declare-fun cell_5_1 () Int)
(declare-fun cell_6_1 () Int)
(declare-fun cell_7_1 () Int)
(declare-fun cell_8_1 () Int)
(declare-fun cell_9_1 () Int)
(declare-fun cell_2_2 () Int)
(declare-fun cell_3_2 () Int)
(declare-fun cell_4_2 () Int)
(declare-fun cell_5_2 () Int)
(declare-fun cell_6_2 () Int)
(declare-fun cell_7_2 () Int)
(declare-fun cell_8_2 () Int)
(declare-fun cell_9_2 () Int)
(declare-fun cell_2_3 () Int)
(declare-fun cell_3_3 () Int)
(declare-fun cell_4_3 () Int)
(declare-fun cell_5_3 () Int)
(declare-fun cell_6_3 () Int)
(declare-fun cell_7_3 () Int)
(declare-fun cell_8_3 () Int)
(declare-fun cell_9_3 () Int)
(declare-fun cell_2_4 () Int)
(declare-fun cell_3_4 () Int)
(declare-fun cell_4_4 () Int)
(declare-fun cell_5_4 () Int)
(declare-fun cell_6_4 () Int)
(declare-fun cell_7_4 () Int)
(declare-fun cell_8_4 () Int)
(declare-fun cell_9_4 () Int)
(declare-fun cell_1_5 () Int)
(declare-fun cell_2_5 () Int)
(declare-fun cell_3_5 () Int)
(declare-fun cell_4_5 () Int)
(declare-fun cell_5_5 () Int)
(declare-fun cell_6_5 () Int)
(declare-fun cell_7_5 () Int)
(declare-fun cell_8_5 () Int)
(declare-fun cell_9_5 () Int)
(declare-fun cell_1_6 () Int)
(declare-fun cell_2_6 () Int)
(declare-fun cell_3_6 () Int)
(declare-fun cell_4_6 () Int)
(declare-fun cell_5_6 () Int)
(declare-fun cell_6_6 () Int)
(declare-fun cell_7_6 () Int)
(declare-fun cell_8_6 () Int)
(declare-fun cell_9_6 () Int)
(declare-fun cell_1_7 () Int)
(declare-fun cell_2_7 () Int)
(declare-fun cell_3_7 () Int)
(declare-fun cell_4_7 () Int)
(declare-fun cell_5_7 () Int)
(declare-fun cell_6_7 () Int)
(declare-fun cell_7_7 () Int)
(declare-fun cell_8_7 () Int)
(declare-fun cell_9_7 () Int)
(declare-fun cell_1_8 () Int)
(declare-fun cell_2_8 () Int)
(declare-fun cell_3_8 () Int)
(declare-fun cell_4_8 () Int)
(declare-fun cell_5_8 () Int)
(declare-fun cell_6_8 () Int)
(declare-fun cell_7_8 () Int)
(declare-fun cell_8_8 () Int)
(declare-fun cell_9_8 () Int)
(declare-fun cell_1_9 () Int)
(declare-fun cell_2_9 () Int)
(declare-fun cell_3_9 () Int)
(declare-fun cell_4_9 () Int)
(declare-fun cell_5_9 () Int)
(declare-fun cell_6_9 () Int)
(declare-fun cell_7_9 () Int)
(declare-fun cell_8_9 () Int)
(declare-fun cell_9_9 () Int)
(assert
 (= cell_1_1 7))
(assert
 (= cell_1_2 5))
(assert
 (= cell_1_3 8))
(assert
 (= cell_1_4 9))
(assert
 (let (($x295 (= cell_1_1 7)))
 (or (= cell_1_1 1) (= cell_1_1 2) (= cell_1_1 3) (= cell_1_1 4) (= cell_1_1 5) (= cell_1_1 6) $x295 (= cell_1_1 8) (= cell_1_1 9))))
(assert
 (let (($x884 (= cell_2_1 8)))
 (let (($x6336 (= cell_2_1 7)))
 (let (($x5112 (= cell_2_1 5)))
 (or (= cell_2_1 1) (= cell_2_1 2) (= cell_2_1 3) (= cell_2_1 4) $x5112 (= cell_2_1 6) $x6336 $x884 (= cell_2_1 9))))))
(assert
 (let (($x4249 (= cell_3_1 8)))
 (let (($x7315 (= cell_3_1 7)))
 (let (($x803 (= cell_3_1 5)))
 (or (= cell_3_1 1) (= cell_3_1 2) (= cell_3_1 3) (= cell_3_1 4) $x803 (= cell_3_1 6) $x7315 $x4249 (= cell_3_1 9))))))
(assert
 (let (($x591 (= cell_4_1 7)))
 (or (= cell_4_1 1) (= cell_4_1 2) (= cell_4_1 3) (= cell_4_1 4) (= cell_4_1 5) (= cell_4_1 6) $x591 (= cell_4_1 8) (= cell_4_1 9))))
(assert
 (let (($x3980 (= cell_5_1 7)))
 (or (= cell_5_1 1) (= cell_5_1 2) (= cell_5_1 3) (= cell_5_1 4) (= cell_5_1 5) (= cell_5_1 6) $x3980 (= cell_5_1 8) (= cell_5_1 9))))
(assert
 (let (($x4439 (= cell_6_1 7)))
 (or (= cell_6_1 1) (= cell_6_1 2) (= cell_6_1 3) (= cell_6_1 4) (= cell_6_1 5) (= cell_6_1 6) $x4439 (= cell_6_1 8) (= cell_6_1 9))))
(assert
 (let (($x7564 (= cell_7_1 7)))
 (or (= cell_7_1 1) (= cell_7_1 2) (= cell_7_1 3) (= cell_7_1 4) (= cell_7_1 5) (= cell_7_1 6) $x7564 (= cell_7_1 8) (= cell_7_1 9))))
(assert
 (let (($x963 (= cell_8_1 7)))
 (or (= cell_8_1 1) (= cell_8_1 2) (= cell_8_1 3) (= cell_8_1 4) (= cell_8_1 5) (= cell_8_1 6) $x963 (= cell_8_1 8) (= cell_8_1 9))))
(assert
 (let (($x6120 (= cell_9_1 7)))
 (or (= cell_9_1 1) (= cell_9_1 2) (= cell_9_1 3) (= cell_9_1 4) (= cell_9_1 5) (= cell_9_1 6) $x6120 (= cell_9_1 8) (= cell_9_1 9))))
(assert
 (let (($x2788 (= cell_1_2 5)))
 (or (= cell_1_2 1) (= cell_1_2 2) (= cell_1_2 3) (= cell_1_2 4) $x2788 (= cell_1_2 6) (= cell_1_2 7) (= cell_1_2 8) (= cell_1_2 9))))
(assert
 (let (($x1236 (= cell_2_2 8)))
 (let (($x2109 (= cell_2_2 7)))
 (let (($x8191 (= cell_2_2 5)))
 (or (= cell_2_2 1) (= cell_2_2 2) (= cell_2_2 3) (= cell_2_2 4) $x8191 (= cell_2_2 6) $x2109 $x1236 (= cell_2_2 9))))))
(assert
 (let (($x2703 (= cell_3_2 8)))
 (let (($x1815 (= cell_3_2 7)))
 (let (($x4677 (= cell_3_2 5)))
 (or (= cell_3_2 1) (= cell_3_2 2) (= cell_3_2 3) (= cell_3_2 4) $x4677 (= cell_3_2 6) $x1815 $x2703 (= cell_3_2 9))))))
(assert
 (let (($x6352 (= cell_4_2 5)))
 (or (= cell_4_2 1) (= cell_4_2 2) (= cell_4_2 3) (= cell_4_2 4) $x6352 (= cell_4_2 6) (= cell_4_2 7) (= cell_4_2 8) (= cell_4_2 9))))
(assert
 (let (($x3785 (= cell_5_2 5)))
 (or (= cell_5_2 1) (= cell_5_2 2) (= cell_5_2 3) (= cell_5_2 4) $x3785 (= cell_5_2 6) (= cell_5_2 7) (= cell_5_2 8) (= cell_5_2 9))))
(assert
 (let (($x4541 (= cell_6_2 5)))
 (or (= cell_6_2 1) (= cell_6_2 2) (= cell_6_2 3) (= cell_6_2 4) $x4541 (= cell_6_2 6) (= cell_6_2 7) (= cell_6_2 8) (= cell_6_2 9))))
(assert
 (let (($x3202 (= cell_7_2 5)))
 (or (= cell_7_2 1) (= cell_7_2 2) (= cell_7_2 3) (= cell_7_2 4) $x3202 (= cell_7_2 6) (= cell_7_2 7) (= cell_7_2 8) (= cell_7_2 9))))
(assert
 (let (($x2751 (= cell_8_2 5)))
 (or (= cell_8_2 1) (= cell_8_2 2) (= cell_8_2 3) (= cell_8_2 4) $x2751 (= cell_8_2 6) (= cell_8_2 7) (= cell_8_2 8) (= cell_8_2 9))))
(assert
 (let (($x4442 (= cell_9_2 5)))
 (or (= cell_9_2 1) (= cell_9_2 2) (= cell_9_2 3) (= cell_9_2 4) $x4442 (= cell_9_2 6) (= cell_9_2 7) (= cell_9_2 8) (= cell_9_2 9))))
(assert
 (let (($x2061 (= cell_1_3 8)))
 (or (= cell_1_3 1) (= cell_1_3 2) (= cell_1_3 3) (= cell_1_3 4) (= cell_1_3 5) (= cell_1_3 6) (= cell_1_3 7) $x2061 (= cell_1_3 9))))
(assert
 (let (($x2997 (= cell_2_3 8)))
 (let (($x8547 (= cell_2_3 7)))
 (let (($x1077 (= cell_2_3 5)))
 (or (= cell_2_3 1) (= cell_2_3 2) (= cell_2_3 3) (= cell_2_3 4) $x1077 (= cell_2_3 6) $x8547 $x2997 (= cell_2_3 9))))))
(assert
 (let (($x458 (= cell_3_3 8)))
 (let (($x2486 (= cell_3_3 7)))
 (let (($x7016 (= cell_3_3 5)))
 (or (= cell_3_3 1) (= cell_3_3 2) (= cell_3_3 3) (= cell_3_3 4) $x7016 (= cell_3_3 6) $x2486 $x458 (= cell_3_3 9))))))
(assert
 (let (($x6148 (= cell_4_3 8)))
 (or (= cell_4_3 1) (= cell_4_3 2) (= cell_4_3 3) (= cell_4_3 4) (= cell_4_3 5) (= cell_4_3 6) (= cell_4_3 7) $x6148 (= cell_4_3 9))))
(assert
 (let (($x9300 (= cell_5_3 8)))
 (or (= cell_5_3 1) (= cell_5_3 2) (= cell_5_3 3) (= cell_5_3 4) (= cell_5_3 5) (= cell_5_3 6) (= cell_5_3 7) $x9300 (= cell_5_3 9))))
(assert
 (let (($x38 (= cell_6_3 8)))
 (or (= cell_6_3 1) (= cell_6_3 2) (= cell_6_3 3) (= cell_6_3 4) (= cell_6_3 5) (= cell_6_3 6) (= cell_6_3 7) $x38 (= cell_6_3 9))))
(assert
 (let (($x2681 (= cell_7_3 8)))
 (or (= cell_7_3 1) (= cell_7_3 2) (= cell_7_3 3) (= cell_7_3 4) (= cell_7_3 5) (= cell_7_3 6) (= cell_7_3 7) $x2681 (= cell_7_3 9))))
(assert
 (let (($x9911 (= cell_8_3 8)))
 (or (= cell_8_3 1) (= cell_8_3 2) (= cell_8_3 3) (= cell_8_3 4) (= cell_8_3 5) (= cell_8_3 6) (= cell_8_3 7) $x9911 (= cell_8_3 9))))
(assert
 (let (($x7027 (= cell_9_3 8)))
 (or (= cell_9_3 1) (= cell_9_3 2) (= cell_9_3 3) (= cell_9_3 4) (= cell_9_3 5) (= cell_9_3 6) (= cell_9_3 7) $x7027 (= cell_9_3 9))))
(assert
 (let (($x9483 (= cell_1_4 9)))
 (or (= cell_1_4 1) (= cell_1_4 2) (= cell_1_4 3) (= cell_1_4 4) (= cell_1_4 5) (= cell_1_4 6) (= cell_1_4 7) (= cell_1_4 8) $x9483)))
(assert
 (let (($x1185 (= cell_2_4 9)))
 (or (= cell_2_4 1) (= cell_2_4 2) (= cell_2_4 3) (= cell_2_4 4) (= cell_2_4 5) (= cell_2_4 6) (= cell_2_4 7) (= cell_2_4 8) $x1185)))
(assert
 (let (($x2480 (= cell_3_4 9)))
 (let (($x3322 (= cell_3_4 5)))
 (or (= cell_3_4 1) (= cell_3_4 2) (= cell_3_4 3) (= cell_3_4 4) $x3322 (= cell_3_4 6) (= cell_3_4 7) (= cell_3_4 8) $x2480))))
(assert
 (let (($x3061 (= cell_4_4 9)))
 (or (= cell_4_4 1) (= cell_4_4 2) (= cell_4_4 3) (= cell_4_4 4) (= cell_4_4 5) (= cell_4_4 6) (= cell_4_4 7) (= cell_4_4 8) $x3061)))
(assert
 (let (($x6514 (= cell_5_4 9)))
 (or (= cell_5_4 1) (= cell_5_4 2) (= cell_5_4 3) (= cell_5_4 4) (= cell_5_4 5) (= cell_5_4 6) (= cell_5_4 7) (= cell_5_4 8) $x6514)))
(assert
 (let (($x8136 (= cell_6_4 9)))
 (or (= cell_6_4 1) (= cell_6_4 2) (= cell_6_4 3) (= cell_6_4 4) (= cell_6_4 5) (= cell_6_4 6) (= cell_6_4 7) (= cell_6_4 8) $x8136)))
(assert
 (let (($x2253 (= cell_7_4 9)))
 (or (= cell_7_4 1) (= cell_7_4 2) (= cell_7_4 3) (= cell_7_4 4) (= cell_7_4 5) (= cell_7_4 6) (= cell_7_4 7) (= cell_7_4 8) $x2253)))
(assert
 (let (($x2836 (= cell_8_4 9)))
 (or (= cell_8_4 1) (= cell_8_4 2) (= cell_8_4 3) (= cell_8_4 4) (= cell_8_4 5) (= cell_8_4 6) (= cell_8_4 7) (= cell_8_4 8) $x2836)))
(assert
 (let (($x1675 (= cell_9_4 9)))
 (or (= cell_9_4 1) (= cell_9_4 2) (= cell_9_4 3) (= cell_9_4 4) (= cell_9_4 5) (= cell_9_4 6) (= cell_9_4 7) (= cell_9_4 8) $x1675)))
(assert
 (let (($x1238 (= cell_1_5 9)))
 (let (($x3364 (= cell_1_5 8)))
 (let (($x362 (= cell_1_5 7)))
 (let (($x8652 (= cell_1_5 5)))
 (let (($x2523 (= cell_1_5 2)))
 (or (= cell_1_5 1) $x2523 (= cell_1_5 3) (= cell_1_5 4) $x8652 (= cell_1_5 6) $x362 $x3364 $x1238)))))))
(assert
 (let (($x5584 (= cell_2_5 9)))
 (or (= cell_2_5 1) (= cell_2_5 2) (= cell_2_5 3) (= cell_2_5 4) (= cell_2_5 5) (= cell_2_5 6) (= cell_2_5 7) (= cell_2_5 8) $x5584)))
(assert
 (let (($x5447 (= cell_3_5 9)))
 (or (= cell_3_5 1) (= cell_3_5 2) (= cell_3_5 3) (= cell_3_5 4) (= cell_3_5 5) (= cell_3_5 6) (= cell_3_5 7) (= cell_3_5 8) $x5447)))
(assert
 (let (($x2992 (= cell_4_5 5)))
 (or (= cell_4_5 1) (= cell_4_5 2) (= cell_4_5 3) (= cell_4_5 4) $x2992 (= cell_4_5 6) (= cell_4_5 7) (= cell_4_5 8) (= cell_4_5 9))))
(assert
 (or (= cell_5_5 1) (= cell_5_5 2) (= cell_5_5 3) (= cell_5_5 4) (= cell_5_5 5) (= cell_5_5 6) (= cell_5_5 7) (= cell_5_5 8) (= cell_5_5 9)))
(assert
 (or (= cell_6_5 1) (= cell_6_5 2) (= cell_6_5 3) (= cell_6_5 4) (= cell_6_5 5) (= cell_6_5 6) (= cell_6_5 7) (= cell_6_5 8) (= cell_6_5 9)))
(assert
 (or (= cell_7_5 1) (= cell_7_5 2) (= cell_7_5 3) (= cell_7_5 4) (= cell_7_5 5) (= cell_7_5 6) (= cell_7_5 7) (= cell_7_5 8) (= cell_7_5 9)))
(assert
 (or (= cell_8_5 1) (= cell_8_5 2) (= cell_8_5 3) (= cell_8_5 4) (= cell_8_5 5) (= cell_8_5 6) (= cell_8_5 7) (= cell_8_5 8) (= cell_8_5 9)))
(assert
 (or (= cell_9_5 1) (= cell_9_5 2) (= cell_9_5 3) (= cell_9_5 4) (= cell_9_5 5) (= cell_9_5 6) (= cell_9_5 7) (= cell_9_5 8) (= cell_9_5 9)))
(assert
 (let (($x2990 (= cell_1_6 9)))
 (let (($x8891 (= cell_1_6 8)))
 (let (($x5148 (= cell_1_6 7)))
 (let (($x6529 (= cell_1_6 5)))
 (or (= cell_1_6 1) (= cell_1_6 2) (= cell_1_6 3) (= cell_1_6 4) $x6529 (= cell_1_6 6) $x5148 $x8891 $x2990))))))
(assert
 (let (($x1983 (= cell_2_6 9)))
 (or (= cell_2_6 1) (= cell_2_6 2) (= cell_2_6 3) (= cell_2_6 4) (= cell_2_6 5) (= cell_2_6 6) (= cell_2_6 7) (= cell_2_6 8) $x1983)))
(assert
 (let (($x1857 (= cell_3_6 9)))
 (or (= cell_3_6 1) (= cell_3_6 2) (= cell_3_6 3) (= cell_3_6 4) (= cell_3_6 5) (= cell_3_6 6) (= cell_3_6 7) (= cell_3_6 8) $x1857)))
(assert
 (or (= cell_4_6 1) (= cell_4_6 2) (= cell_4_6 3) (= cell_4_6 4) (= cell_4_6 5) (= cell_4_6 6) (= cell_4_6 7) (= cell_4_6 8) (= cell_4_6 9)))
(assert
 (let (($x3144 (= cell_5_6 5)))
 (or (= cell_5_6 1) (= cell_5_6 2) (= cell_5_6 3) (= cell_5_6 4) $x3144 (= cell_5_6 6) (= cell_5_6 7) (= cell_5_6 8) (= cell_5_6 9))))
(assert
 (or (= cell_6_6 1) (= cell_6_6 2) (= cell_6_6 3) (= cell_6_6 4) (= cell_6_6 5) (= cell_6_6 6) (= cell_6_6 7) (= cell_6_6 8) (= cell_6_6 9)))
(assert
 (or (= cell_7_6 1) (= cell_7_6 2) (= cell_7_6 3) (= cell_7_6 4) (= cell_7_6 5) (= cell_7_6 6) (= cell_7_6 7) (= cell_7_6 8) (= cell_7_6 9)))
(assert
 (or (= cell_8_6 1) (= cell_8_6 2) (= cell_8_6 3) (= cell_8_6 4) (= cell_8_6 5) (= cell_8_6 6) (= cell_8_6 7) (= cell_8_6 8) (= cell_8_6 9)))
(assert
 (or (= cell_9_6 1) (= cell_9_6 2) (= cell_9_6 3) (= cell_9_6 4) (= cell_9_6 5) (= cell_9_6 6) (= cell_9_6 7) (= cell_9_6 8) (= cell_9_6 9)))
(assert
 (let (($x7046 (= cell_1_7 9)))
 (let (($x7759 (= cell_1_7 8)))
 (let (($x6484 (= cell_1_7 7)))
 (let (($x1132 (= cell_1_7 5)))
 (or (= cell_1_7 1) (= cell_1_7 2) (= cell_1_7 3) (= cell_1_7 4) $x1132 (= cell_1_7 6) $x6484 $x7759 $x7046))))))
(assert
 (or (= cell_2_7 1) (= cell_2_7 2) (= cell_2_7 3) (= cell_2_7 4) (= cell_2_7 5) (= cell_2_7 6) (= cell_2_7 7) (= cell_2_7 8) (= cell_2_7 9)))
(assert
 (or (= cell_3_7 1) (= cell_3_7 2) (= cell_3_7 3) (= cell_3_7 4) (= cell_3_7 5) (= cell_3_7 6) (= cell_3_7 7) (= cell_3_7 8) (= cell_3_7 9)))
(assert
 (or (= cell_4_7 1) (= cell_4_7 2) (= cell_4_7 3) (= cell_4_7 4) (= cell_4_7 5) (= cell_4_7 6) (= cell_4_7 7) (= cell_4_7 8) (= cell_4_7 9)))
(assert
 (or (= cell_5_7 1) (= cell_5_7 2) (= cell_5_7 3) (= cell_5_7 4) (= cell_5_7 5) (= cell_5_7 6) (= cell_5_7 7) (= cell_5_7 8) (= cell_5_7 9)))
(assert
 (let (($x136 (= cell_6_7 5)))
 (or (= cell_6_7 1) (= cell_6_7 2) (= cell_6_7 3) (= cell_6_7 4) $x136 (= cell_6_7 6) (= cell_6_7 7) (= cell_6_7 8) (= cell_6_7 9))))
(assert
 (or (= cell_7_7 1) (= cell_7_7 2) (= cell_7_7 3) (= cell_7_7 4) (= cell_7_7 5) (= cell_7_7 6) (= cell_7_7 7) (= cell_7_7 8) (= cell_7_7 9)))
(assert
 (or (= cell_8_7 1) (= cell_8_7 2) (= cell_8_7 3) (= cell_8_7 4) (= cell_8_7 5) (= cell_8_7 6) (= cell_8_7 7) (= cell_8_7 8) (= cell_8_7 9)))
(assert
 (or (= cell_9_7 1) (= cell_9_7 2) (= cell_9_7 3) (= cell_9_7 4) (= cell_9_7 5) (= cell_9_7 6) (= cell_9_7 7) (= cell_9_7 8) (= cell_9_7 9)))
(assert
 (let (($x8154 (= cell_1_8 9)))
 (let (($x5990 (= cell_1_8 8)))
 (let (($x4842 (= cell_1_8 7)))
 (let (($x3563 (= cell_1_8 5)))
 (or (= cell_1_8 1) (= cell_1_8 2) (= cell_1_8 3) (= cell_1_8 4) $x3563 (= cell_1_8 6) $x4842 $x5990 $x8154))))))
(assert
 (or (= cell_2_8 1) (= cell_2_8 2) (= cell_2_8 3) (= cell_2_8 4) (= cell_2_8 5) (= cell_2_8 6) (= cell_2_8 7) (= cell_2_8 8) (= cell_2_8 9)))
(assert
 (or (= cell_3_8 1) (= cell_3_8 2) (= cell_3_8 3) (= cell_3_8 4) (= cell_3_8 5) (= cell_3_8 6) (= cell_3_8 7) (= cell_3_8 8) (= cell_3_8 9)))
(assert
 (or (= cell_4_8 1) (= cell_4_8 2) (= cell_4_8 3) (= cell_4_8 4) (= cell_4_8 5) (= cell_4_8 6) (= cell_4_8 7) (= cell_4_8 8) (= cell_4_8 9)))
(assert
 (or (= cell_5_8 1) (= cell_5_8 2) (= cell_5_8 3) (= cell_5_8 4) (= cell_5_8 5) (= cell_5_8 6) (= cell_5_8 7) (= cell_5_8 8) (= cell_5_8 9)))
(assert
 (or (= cell_6_8 1) (= cell_6_8 2) (= cell_6_8 3) (= cell_6_8 4) (= cell_6_8 5) (= cell_6_8 6) (= cell_6_8 7) (= cell_6_8 8) (= cell_6_8 9)))
(assert
 (let (($x2700 (= cell_7_8 5)))
 (or (= cell_7_8 1) (= cell_7_8 2) (= cell_7_8 3) (= cell_7_8 4) $x2700 (= cell_7_8 6) (= cell_7_8 7) (= cell_7_8 8) (= cell_7_8 9))))
(assert
 (or (= cell_8_8 1) (= cell_8_8 2) (= cell_8_8 3) (= cell_8_8 4) (= cell_8_8 5) (= cell_8_8 6) (= cell_8_8 7) (= cell_8_8 8) (= cell_8_8 9)))
(assert
 (or (= cell_9_8 1) (= cell_9_8 2) (= cell_9_8 3) (= cell_9_8 4) (= cell_9_8 5) (= cell_9_8 6) (= cell_9_8 7) (= cell_9_8 8) (= cell_9_8 9)))
(assert
 (let (($x257 (= cell_1_9 9)))
 (let (($x9895 (= cell_1_9 8)))
 (let (($x8673 (= cell_1_9 7)))
 (let (($x1643 (= cell_1_9 5)))
 (or (= cell_1_9 1) (= cell_1_9 2) (= cell_1_9 3) (= cell_1_9 4) $x1643 (= cell_1_9 6) $x8673 $x9895 $x257))))))
(assert
 (or (= cell_2_9 1) (= cell_2_9 2) (= cell_2_9 3) (= cell_2_9 4) (= cell_2_9 5) (= cell_2_9 6) (= cell_2_9 7) (= cell_2_9 8) (= cell_2_9 9)))
(assert
 (or (= cell_3_9 1) (= cell_3_9 2) (= cell_3_9 3) (= cell_3_9 4) (= cell_3_9 5) (= cell_3_9 6) (= cell_3_9 7) (= cell_3_9 8) (= cell_3_9 9)))
(assert
 (or (= cell_4_9 1) (= cell_4_9 2) (= cell_4_9 3) (= cell_4_9 4) (= cell_4_9 5) (= cell_4_9 6) (= cell_4_9 7) (= cell_4_9 8) (= cell_4_9 9)))
(assert
 (or (= cell_5_9 1) (= cell_5_9 2) (= cell_5_9 3) (= cell_5_9 4) (= cell_5_9 5) (= cell_5_9 6) (= cell_5_9 7) (= cell_5_9 8) (= cell_5_9 9)))
(assert
 (or (= cell_6_9 1) (= cell_6_9 2) (= cell_6_9 3) (= cell_6_9 4) (= cell_6_9 5) (= cell_6_9 6) (= cell_6_9 7) (= cell_6_9 8) (= cell_6_9 9)))
(assert
 (or (= cell_7_9 1) (= cell_7_9 2) (= cell_7_9 3) (= cell_7_9 4) (= cell_7_9 5) (= cell_7_9 6) (= cell_7_9 7) (= cell_7_9 8) (= cell_7_9 9)))
(assert
 (let (($x748 (= cell_8_9 5)))
 (or (= cell_8_9 1) (= cell_8_9 2) (= cell_8_9 3) (= cell_8_9 4) $x748 (= cell_8_9 6) (= cell_8_9 7) (= cell_8_9 8) (= cell_8_9 9))))
(assert
 (or (= cell_9_9 1) (= cell_9_9 2) (= cell_9_9 3) (= cell_9_9 4) (= cell_9_9 5) (= cell_9_9 6) (= cell_9_9 7) (= cell_9_9 8) (= cell_9_9 9)))
(assert
 (and (distinct cell_1_1 cell_1_2 cell_1_3 cell_1_4 cell_1_5 cell_1_6 cell_1_7 cell_1_8 cell_1_9) true))
(assert
 (and (distinct cell_2_1 cell_2_2 cell_2_3 cell_2_4 cell_2_5 cell_2_6 cell_2_7 cell_2_8 cell_2_9) true))
(assert
 (and (distinct cell_3_1 cell_3_2 cell_3_3 cell_3_4 cell_3_5 cell_3_6 cell_3_7 cell_3_8 cell_3_9) true))
(assert
 (and (distinct cell_4_1 cell_4_2 cell_4_3 cell_4_4 cell_4_5 cell_4_6 cell_4_7 cell_4_8 cell_4_9) true))
(assert
 (and (distinct cell_5_1 cell_5_2 cell_5_3 cell_5_4 cell_5_5 cell_5_6 cell_5_7 cell_5_8 cell_5_9) true))
(assert
 (and (distinct cell_6_1 cell_6_2 cell_6_3 cell_6_4 cell_6_5 cell_6_6 cell_6_7 cell_6_8 cell_6_9) true))
(assert
 (and (distinct cell_7_1 cell_7_2 cell_7_3 cell_7_4 cell_7_5 cell_7_6 cell_7_7 cell_7_8 cell_7_9) true))
(assert
 (and (distinct cell_8_1 cell_8_2 cell_8_3 cell_8_4 cell_8_5 cell_8_6 cell_8_7 cell_8_8 cell_8_9) true))
(assert
 (and (distinct cell_9_1 cell_9_2 cell_9_3 cell_9_4 cell_9_5 cell_9_6 cell_9_7 cell_9_8 cell_9_9) true))
(assert
 (and (distinct cell_1_1 cell_2_1 cell_3_1 cell_4_1 cell_5_1 cell_6_1 cell_7_1 cell_8_1 cell_9_1) true))
(assert
 (and (distinct cell_1_2 cell_2_2 cell_3_2 cell_4_2 cell_5_2 cell_6_2 cell_7_2 cell_8_2 cell_9_2) true))
(assert
 (and (distinct cell_1_3 cell_2_3 cell_3_3 cell_4_3 cell_5_3 cell_6_3 cell_7_3 cell_8_3 cell_9_3) true))
(assert
 (and (distinct cell_1_4 cell_2_4 cell_3_4 cell_4_4 cell_5_4 cell_6_4 cell_7_4 cell_8_4 cell_9_4) true))
(assert
 (and (distinct cell_1_5 cell_2_5 cell_3_5 cell_4_5 cell_5_5 cell_6_5 cell_7_5 cell_8_5 cell_9_5) true))
(assert
 (and (distinct cell_1_6 cell_2_6 cell_3_6 cell_4_6 cell_5_6 cell_6_6 cell_7_6 cell_8_6 cell_9_6) true))
(assert
 (and (distinct cell_1_7 cell_2_7 cell_3_7 cell_4_7 cell_5_7 cell_6_7 cell_7_7 cell_8_7 cell_9_7) true))
(assert
 (and (distinct cell_1_8 cell_2_8 cell_3_8 cell_4_8 cell_5_8 cell_6_8 cell_7_8 cell_8_8 cell_9_8) true))
(assert
 (and (distinct cell_1_9 cell_2_9 cell_3_9 cell_4_9 cell_5_9 cell_6_9 cell_7_9 cell_8_9 cell_9_9) true))
(assert
 (and (distinct cell_1_1 cell_1_2 cell_1_3 cell_2_1 cell_2_2 cell_2_3 cell_3_1 cell_3_2 cell_3_3) true))
(assert
 (and (distinct cell_1_4 cell_1_5 cell_1_6 cell_2_4 cell_2_5 cell_2_6 cell_3_4 cell_3_5 cell_3_6) true))
(assert
 (and (distinct cell_1_7 cell_1_8 cell_1_9 cell_2_7 cell_2_8 cell_2_9 cell_3_7 cell_3_8 cell_3_9) true))
(assert
 (and (distinct cell_4_1 cell_4_2 cell_4_3 cell_5_1 cell_5_2 cell_5_3 cell_6_1 cell_6_2 cell_6_3) true))
(assert
 (and (distinct cell_4_4 cell_4_5 cell_4_6 cell_5_4 cell_5_5 cell_5_6 cell_6_4 cell_6_5 cell_6_6) true))
(assert
 (and (distinct cell_4_7 cell_4_8 cell_4_9 cell_5_7 cell_5_8 cell_5_9 cell_6_7 cell_6_8 cell_6_9) true))
(assert
 (and (distinct cell_7_1 cell_7_2 cell_7_3 cell_8_1 cell_8_2 cell_8_3 cell_9_1 cell_9_2 cell_9_3) true))
(assert
 (and (distinct cell_7_4 cell_7_5 cell_7_6 cell_8_4 cell_8_5 cell_8_6 cell_9_4 cell_9_5 cell_9_6) true))
(assert
 (and (distinct cell_7_7 cell_7_8 cell_7_9 cell_8_7 cell_8_8 cell_8_9 cell_9_7 cell_9_8 cell_9_9) true))
(assert
 (let (($x2844 (and (distinct cell_5_9 cell_6_8 cell_7_7 cell_8_6) true)))
 (let (($x2082 (and (distinct cell_2_9 cell_3_8 cell_4_7 cell_5_6 cell_6_5 cell_7_4 cell_8_3 cell_9_2) true)))
 (let (($x1907 (and (distinct cell_1_8 cell_2_7 cell_3_6 cell_4_5 cell_5_4 cell_6_3 cell_7_2 cell_8_1) true)))
 (let (($x5182 (and (distinct cell_1_5 cell_2_4 cell_3_3 cell_4_2) true)))
 (let (($x3574 (and (distinct cell_5_1 cell_6_2 cell_7_3 cell_8_4) true)))
 (let (($x1350 (and (distinct cell_2_1 cell_3_2 cell_4_3 cell_5_4 cell_6_5 cell_7_6 cell_8_7 cell_9_8) true)))
 (let (($x3501 (and (distinct cell_1_2 cell_2_3 cell_3_4 cell_4_5 cell_5_6 cell_6_7 cell_7_8 cell_8_9) true)))
 (let (($x1685 (and (distinct cell_1_5 cell_2_6 cell_3_7 cell_4_8) true)))
 (and $x1685 $x3501 $x1350 $x3574 $x5182 $x1907 $x2082 $x2844))))))))))
(assert
 (= cell_1_5 2))
(check-sat)
